============================[ Problem Statistics ]=============================|                                                                             ||  Number of variables:          4242                                         ||  Number of clauses:           10253                                         ||  Parse time:                   0.64 s                                       ||                                                                             |============================[ Search Statistics ]==============================| Conflicts |          ORIGINAL         |          LEARNT          | Progress ||           |    Vars  Clauses Literals |    Limit  Clauses Lit/Cl |          |===============================================================================|       100 |    1591     6458  1022079 |     2367      100     53 | 62.501 % ||       250 |    1591     6458  1022079 |     2604      250     75 | 62.495 % |===============================================================================restarts              : 3conflicts             : 351            (363 /sec)decisions             : 617            (0.00 % random) (637 /sec)propagations          : 11957          (12352 /sec)conflict literals     : 28507          (94.63 % deleted)CPU time              : 0.968 sSATISFIABLE